NAME: cum20.tsp
TYPE: TSP
COMMENT: User-generated TSP file
DIMENSION: 20
EDGE_WEIGHT_TYPE: EUC_2D
NODE_COORD_SECTION
1 16.0 18.0
2 3.0 7.0
3 5.0 11.0
4 18.0 8.0
5 14.0 3.0
6 17.0 5.0
7 13.0 3.0
8 5.0 2.0
9 7.0 7.0
10 14.0 16.0
11 3.0 15.0
12 14.0 7.0
13 7.0 14.0
14 19.0 13.0
15 8.0 11.0
16 17.0 16.0
17 12.0 7.0
18 14.0 18.0
19 2.0 7.0
20 20.0 6.0
EOF





